************************************************************************
file with basedata            : md360_.bas
initial value random generator: 919443915
************************************************************************
projects                      :  1
jobs (incl. supersource/sink ):  22
horizon                       :  153
RESOURCES
  - renewable                 :  2   R
  - nonrenewable              :  2   N
  - doubly constrained        :  0   D
************************************************************************
PROJECT INFORMATION:
pronr.  #jobs rel.date duedate tardcost  MPM-Time
    1     20      0       25       12       25
************************************************************************
PRECEDENCE RELATIONS:
jobnr.    #modes  #successors   successors
   1        1          3           2   3   4
   2        3          1           5
   3        3          2           6  10
   4        3          3          10  13  15
   5        3          3           6   8  18
   6        3          3           7  11  14
   7        3          2          19  20
   8        3          3           9  11  12
   9        3          2          10  19
  10        3          1          16
  11        3          2          15  21
  12        3          3          13  14  15
  13        3          1          16
  14        3          2          17  21
  15        3          2          17  19
  16        3          2          17  21
  17        3          1          20
  18        3          1          20
  19        3          1          22
  20        3          1          22
  21        3          1          22
  22        1          0        
************************************************************************
REQUESTS/DURATIONS:
jobnr. mode duration  R 1  R 2  N 1  N 2
------------------------------------------------------------------------
  1      1     0       0    0    0    0
  2      1     1       3    7    3    8
         2     6       2    7    3    4
         3     9       2    6    3    2
  3      1     1       6    7    8    9
         2     7       1    6    7    7
         3     7       4    5    8    7
  4      1     3       6    8    6    9
         2     5       5    7    4    7
         3     6       5    7    1    4
  5      1     4       2    4    5    3
         2     6       2    4    5    2
         3     9       1    3    4    2
  6      1     2       4    2    6    7
         2     4       4    1    5    5
         3     6       3    1    5    4
  7      1     4       7   10    6    6
         2     4       7    8    6    9
         3     8       7    5    5    3
  8      1     4       5    8    3    5
         2     7       4    8    2    4
         3    10       3    7    2    4
  9      1     6       3    8    6    8
         2     7       3    7    4    7
         3    10       2    4    2    3
 10      1     2       6    8    7    6
         2     8       3    7    6    5
         3     9       2    4    4    5
 11      1     1       5    7    3    5
         2     4       4    7    2    2
         3     8       3    7    1    2
 12      1     4       5    5    8    8
         2     6       3    4    7    7
         3    10       3    2    7    3
 13      1     2       4    6    6    4
         2     4       3    6    5    3
         3     6       2    4    5    3
 14      1     3       4    9    9    7
         2     4       4    8    9    7
         3     5       4    8    9    6
 15      1     5       7    9    3    9
         2     6       5    5    2    8
         3    10       3    5    1    8
 16      1     2       6    6   10    3
         2     2       6    9    9    3
         3     5       6    4    8    1
 17      1     1       5    9    6    3
         2     5       2    9    4    2
         3     5       4    8    6    2
 18      1     3       8    3    5    7
         2     5       3    3    5    4
         3     5       5    2    5    6
 19      1     1       6    7    8    2
         2     6       5    5    6    2
         3     7       5    4    3    2
 20      1     5       8    7    5    6
         2     8       8    4    5    4
         3     9       7    4    5    3
 21      1     1       7    6    8    1
         2     5       7    6    7    1
         3     9       7    3    7    1
 22      1     0       0    0    0    0
************************************************************************
RESOURCEAVAILABILITIES:
  R 1  R 2  N 1  N 2
   20   32   96   82
************************************************************************
